benchmarks/bfuzz0/1938145713271127490307461910226476811.smt2
(set-logic QF_FP)
(declare-const x0 (_ FloatingPoint 11 53))
(declare-const x1 (_ FloatingPoint 11 53))
(declare-const x2 (_ FloatingPoint 11 53))
(declare-const x3 (_ FloatingPoint 11 53))
(declare-const x4 (_ FloatingPoint 11 53))
(declare-const x5 (_ FloatingPoint 11 53))
(declare-const x6 (_ FloatingPoint 11 53))
(declare-const x7 (_ FloatingPoint 11 53))
(declare-const x8 (_ FloatingPoint 11 53))
(declare-const x9 (_ FloatingPoint 11 53))
(declare-const x10 (_ FloatingPoint 11 53))
(declare-const x11 (_ FloatingPoint 11 53))
(declare-const x12 (_ FloatingPoint 11 53))
(assert (fp.gt (fp.div RNE x10 x3) (fp.mul RNE x7 x1)))
(assert (fp.leq (fp.div RNE x9 x4) (fp.div RNE x8 x4)))
(assert (fp.lt (fp.neg x2) (fp.sub RNE x10 x5)))
(assert (fp.eq (fp.div RNE x8 x3) (fp.add RNE x10 x4)))
(assert (fp.eq (fp.add RNE x9 x8) (fp.neg x10)))
(assert (fp.gt (fp.div RNE x6 x1) (fp.neg x9)))
(assert (fp.lt (fp.div RNE x6 x1) (fp.add RNE x4 x3)))
(check-sat)
