db/data/1938145713271127490307461910226476811.z3.out
-------------------
2500.074791860
